
630.0
930.0
630.0
630.0
630.0
630.0
630.0
1110.0
630.0
630.0
630.0
690.0
630.0
630.0
630.0
690.0
630.0
630.0
630.0
630.0
630.0
630.0
630.0
630.0
630.0
630.0
630.0
630.0
630.0
630.0
630.0
810.0
630.0
630.0
630.0
720.0
630.0
630.0
630.0
630.0
630.0
630.0
630.0
630.0
630.0
720.0
630.0
630.0
630.0
630.0